db/data/72612211419149267421980116469429615606.z3.out
-------------------
2500.290045364
